100
108
129
166
211
116
96
270
61
295
245
210
62
86
50
13
168
168
191
198
224
15
137
191
83
178
33
69
264
114
191
173
243
30
66
297
198
156
121
144
85
44
76
168
215
268
248
89
36
288
86
224
129
129
62
32
22
66
203
161
216
33
267
281
216
84
259
267
281
168
64
274
260
66
210
79
233
255
130
56
168
203
158
69
10
134
2
189
163
44
156
65
36
44
277
72
9
151
271
9
292
END